99
23
0 25 26 29 30 31 33 34 35 37 38 40 41 42 43 45 46 47 48 50 51 52 53 54 55 56 59 60 61 65 71 73 74 76 77 79 80 82 83 87 88 90 93 95 96 97
1 24 26 30 31 35 36 37 38 40 43 45 46 48 52 53 55 56 57 62 65 66 68 71 73 77 78 80 82 86 87 89 90 91 93 96 97 98
2 24 26 31 32 33 37 40 42 43 45 46 51 52 54 55 56 58 60 61 65 67 70 71 73 74 76 77 78 82 87 88 89 90 91 92 95 97
3 24 25 26 31 32 40 42 43 47 51 52 53 55 56 59 62 63 64 65 72 74 76 78 80 82 85 87 88 89 90 95 96 97 98
4 24 25 29 30 32 36 38 44 46 48 51 52 54 55 56 59 63 65 66 67 68 71 74 76 77 78 80 82 83 85 87 88 89 90 91 94 95 96 97 98
5 24 25 26 27 29 30 31 33 37 38 40 43 44 45 46 52 53 54 55 56 57 61 65 68 71 76 80 82 85 88 90 91 95 96 97 98
6 24 25 26 30 32 33 37 40 41 43 44 47 51 52 54 55 56 57 59 61 62 66 68 71 74 76 77 78 79 80 82 85 87 88 89 91 95 96 97 98
7 23 25 26 30 32 38 39 40 41 43 44 47 53 54 55 57 58 59 62 63 65 71 74 76 77 79 81 82 86 87 90 91 97
8 24 25 26 34 37 38 39 41 42 44 45 48 50 52 53 54 55 56 63 68 70 73 74 76 77 78 80 82 85 87 88 89 90 91 95 96
9 25 26 32 37 38 41 43 45 46 47 51 52 53 57 58 59 62 65 68 71 73 74 76 77 81 82 83 88 91 92 97 98
10 24 26 31 32 33 36 37 40 41 42 45 46 55 56 57 58 62 63 69 73 75 78 79 80 82 85 87 89 90 94 95
11 29 30 33 37 38 45 46 47 48 50 52 53 54 55 56 57 58 63 65 69 72 73 74 76 79 80 85 88 89 91 93 96 98
12 24 26 30 38 39 40 42 43 46 47 50 51 52 54 55 56 57 59 61 65 72 76 78 79 82 85 87 89 93 95 98
13 24 25 26 31 34 36 37 42 44 45 50 54 56 57 58 62 63 65 71 73 76 89 91 93 96 97 98
14 32 34 36 42 45 46 47 48 49 53 57 58 60 61 62 71 73 76 77 78 79 88 91 92 93 94
15 31 33 34 40 44 45 59 64 65 67 68 70 71 72 73 78 82 85 87 88 89 94 95
16 25 28 29 30 31 37 38 40 41 42 43 46 57 58 59 63 64 69 72 74 75 76 85 88 90 97 98
17 25 30 33 36 38 47 50 53 55 59 60 61 67 68 74 76 87 90 92
18 26 33 38 41 44 48 53 57 64 66 75 80 81 84 89 91 92 94 97
19 25 29 46 56 57 62 67 68 81 85 96
20 38 43 46 48 61 63 70 75 83
21 23 24 39 47 53 78 79 95
22 62
